coords = array2d(1..57, 1..2, [511, 10, 551, 831, 577, 841, 117, 990, 681, 959,
    999, 579, 808, 873, 449, 910, 916, 615, 480, 384, 413, 67, 38,
    226, 910, 365, 520, 339, 445, 876, 198, 519, 296, 227, 514, 187,
    599, 228, 4, 425, 632, 452, 163, 797, 862, 993, 965, 301, 695, 24,
    686, 247, 532, 910, 303, 815, 573, 731, 172, 259, 464, 532, 921,
    440, 270, 559, 586, 115, 703, 41, 576, 112, 809, 142, 870, 219,
    860, 170, 911, 233, 94, 601, 916, 958, 689, 606, 421, 666, 477,
    717, 582, 934, 323, 558, 669, 818, 408, 641, 231, 337, 438, 614,
    98, 623, 12, 60, 793, 188, 329, 580, 538, 778, 464, 920]);

n = 57;

